NAME 
ROWS
 N  OBJ
 L  R0      
 E  R1      
 E  R2      
 E  R3      
 E  R4      
 E  R5      
 E  R6      
 E  R7      
 E  R8      
 E  R9      
 E  R10     
 E  R11     
 E  R12     
 E  R13     
 E  R14     
 E  R15     
 E  R16     
 E  R17     
 E  R18     
 E  R19     
 E  R20     
COLUMNS
    MARKER    'MARKER'                 'INTORG'
    I0(9)     OBJ       -11
    I0(9)     R0        151
    I0(9)     R1        11
    I0(9)     R2        7
    I0(9)     R3        3
    I0(9)     R4        11
    I0(9)     R6        8
    I0(9)     R7        12
    I0(9)     R8        14
    I0(9)     R20       1
    I1(9)     OBJ       -146
    I1(9)     R0        160
    I1(9)     R1        3
    I1(9)     R2        3
    I1(9)     R3        10
    I1(9)     R4        15
    I1(9)     R5        1
    I1(9)     R6        12
    I1(9)     R9        10
    I1(9)     R20       1
    I2(4)     OBJ       53
    I2(4)     R0        113
    I2(4)     R7        16
    I2(4)     R9        2
    I2(4)     R20       1
    I3(8)     OBJ       -132
    I3(8)     R0        -72
    I3(8)     R1        15
    I3(8)     R3        10
    I3(8)     R6        18
    I3(8)     R7        11
    I3(8)     R9        7
    I3(8)     R12       14
    I3(8)     R20       1
    I4(4)     OBJ       170
    I4(4)     R0        -32
    I4(4)     R6        8
    I4(4)     R11       2
    I4(4)     R20       1
    I5(8)     OBJ       -182
    I5(8)     R0        -121
    I5(8)     R1        1
    I5(8)     R5        2
    I5(8)     R7        18
    I5(8)     R9        12
    I5(8)     R10       13
    I5(8)     R11       7
    I5(8)     R20       1
    I6(6)     OBJ       73
    I6(6)     R0        -65
    I6(6)     R4        12
    I6(6)     R7        18
    I6(6)     R10       7
    I6(6)     R11       1
    I6(6)     R20       1
    I7(6)     OBJ       193
    I7(6)     R0        -143
    I7(6)     R1        14
    I7(6)     R6        12
    I7(6)     R11       15
    I7(6)     R12       19
    I7(6)     R20       1
    I8(8)     OBJ       -75
    I8(8)     R0        -88
    I8(8)     R1        7
    I8(8)     R7        13
    I8(8)     R8        13
    I8(8)     R10       12
    I8(8)     R11       3
    I8(8)     R12       1
    I8(8)     R20       1
    I9(7)     OBJ       63
    I9(7)     R0        27
    I9(7)     R3        -1
    I9(7)     R4        8
    I9(7)     R6        -1
    I9(7)     R7        8
    I9(7)     R8        -1
    I9(7)     R20       1
    I10(10)   OBJ       121
    I10(10)   R0        158
    I10(10)   R1        5
    I10(10)   R3        2
    I10(10)   R4        1
    I10(10)   R5        16
    I10(10)   R6        10
    I10(10)   R7        3
    I10(10)   R8        6
    I10(10)   R10       6
    I10(10)   R20       1
    I11(10)   OBJ       -186
    I11(10)   R0        71
    I11(10)   R1        2
    I11(10)   R3        7
    I11(10)   R4        3
    I11(10)   R5        6
    I11(10)   R7        7
    I11(10)   R8        1
    I11(10)   R10       19
    I11(10)   R11       17
    I11(10)   R20       1
    MARKER    'MARKER'                 'INTEND'
    C12(8)    OBJ       -4
    C12(8)    R0        -4
    C12(8)    R4        8
    C12(8)    R8        11
    C12(8)    R10       3
    C12(8)    R12       4
    C12(8)    R15       2
    C12(8)    R18       1
    C12(8)    R19       2
    C13(12)   OBJ       -7
    C13(12)   R0        -7
    C13(12)   R1        4
    C13(12)   R2        19
    C13(12)   R3        -1
    C13(12)   R4        17
    C13(12)   R5        1
    C13(12)   R8        18
    C13(12)   R9        9
    C13(12)   R11       2
    C13(12)   R16       17
    C13(12)   R18       15
    C13(12)   R19       3
    C14(11)   OBJ       -5
    C14(11)   R0        -5
    C14(11)   R1        7
    C14(11)   R2        14
    C14(11)   R5        10
    C14(11)   R11       16
    C14(11)   R12       19
    C14(11)   R13       10
    C14(11)   R14       10
    C14(11)   R17       17
    C14(11)   R18       16
    C14(11)   R19       8
    C15(11)   OBJ       7
    C15(11)   R0        8
    C15(11)   R2        8
    C15(11)   R3        8
    C15(11)   R5        -1
    C15(11)   R6        8
    C15(11)   R7        11
    C15(11)   R9        12
    C15(11)   R10       3
    C15(11)   R11       11
    C15(11)   R15       10
    C15(11)   R18       5
    C16(14)   OBJ       -6
    C16(14)   R0        -6
    C16(14)   R2        17
    C16(14)   R3        2
    C16(14)   R5        3
    C16(14)   R7        11
    C16(14)   R8        8
    C16(14)   R9        12
    C16(14)   R11       13
    C16(14)   R12       3
    C16(14)   R14       7
    C16(14)   R15       13
    C16(14)   R16       15
    C16(14)   R17       16
    C16(14)   R19       13
    C17(12)   OBJ       -3
    C17(12)   R0        -2
    C17(12)   R1        3
    C17(12)   R2        13
    C17(12)   R3        -1
    C17(12)   R4        5
    C17(12)   R7        12
    C17(12)   R9        9
    C17(12)   R10       18
    C17(12)   R11       5
    C17(12)   R12       1
    C17(12)   R16       13
    C17(12)   R19       16
    C18(12)   OBJ       -2
    C18(12)   R0        -2
    C18(12)   R1        14
    C18(12)   R2        -1
    C18(12)   R3        16
    C18(12)   R6        19
    C18(12)   R7        12
    C18(12)   R8        8
    C18(12)   R9        18
    C18(12)   R11       2
    C18(12)   R12       -1
    C18(12)   R18       -1
    C18(12)   R19       7
    C19(11)   OBJ       6
    C19(11)   R0        9
    C19(11)   R2        8
    C19(11)   R4        13
    C19(11)   R5        14
    C19(11)   R7        9
    C19(11)   R8        4
    C19(11)   R9        15
    C19(11)   R10       11
    C19(11)   R15       1
    C19(11)   R16       16
    C19(11)   R17       9
    C20(1)    R1        1
    C21(1)    R2        1
    C22(1)    R3        1
    C23(1)    R4        1
    C24(1)    R5        1
    C25(1)    R6        1
    C26(1)    R7        1
    C27(1)    R8        1
    C28(1)    R9        1
    C29(1)    R10       1
    C30(1)    R11       1
    C31(1)    R12       1
    C32(1)    R13       1
    C33(1)    R14       1
    C34(1)    R15       1
    C35(1)    R16       1
    C36(1)    R17       1
    C37(1)    R18       1
    C38(1)    R19       1
    C39(1)    R20       1
RHS
    RHS1      R0        3.4153966393122914e-01
    RHS1      R1        82
    RHS1      R2        53
    RHS1      R3        66
    RHS1      R4        56
    RHS1      R5        57
    RHS1      R6        60
    RHS1      R7        83
    RHS1      R8        98
    RHS1      R9        67
    RHS1      R10       85
    RHS1      R11       95
    RHS1      R12       50
    RHS1      R13       74
    RHS1      R14       85
    RHS1      R15       64
    RHS1      R16       70
    RHS1      R17       71
    RHS1      R18       76
    RHS1      R19       85
    RHS1      R20       4
BOUNDS
 UP BND1      I0(9)     1
 UP BND1      I1(9)     1
 UP BND1      I2(4)     1
 UP BND1      I3(8)     1
 UP BND1      I4(4)     1
 UP BND1      I5(8)     1
 UP BND1      I6(6)     1
 UP BND1      I7(6)     1
 UP BND1      I8(8)     1
 UP BND1      I9(7)     1
 UP BND1      I10(10)   1
 UP BND1      I11(10)   1
ENDATA
